c --- [ banner ] -------------------------------------------------------------
c 
c CaDiCaL Radically Simplified CDCL SAT Solver
c Copyright (c) 2016-2021 A. Biere, M. Fleury, N. Froleyks
c 
c Version 1.5.2 a5f15211db36c3956764e18194dd5bd63bf3b5e6
c g++ (GCC) 9.3.0 -Wall -Wextra -O3 -DNDEBUG
c Fri Oct 21 01:27:37 EDT 2022 Linux gra-login3 3.10.0-1160.66.1.el7.x86_64 x86_64
c 
c --- [ limit ] --------------------------------------------------------------
c 
c setting conflict limit to 200000 conflicts (due to '200000')
c 
c --- [ parsing input ] ------------------------------------------------------
c 
c reading DIMACS file from '33.cubes7260.adj'
c opening file to read '33.cubes7260.adj'
c found 'p cnf 6160 1595482' header
c parsed 1595482 clauses in 19.81 seconds process time
c closing file '33.cubes7260.adj'
c after reading 1457566821 bytes 1390.0 MB
c 
c --- [ options ] ------------------------------------------------------------
c 
c all options are set to their default value
c 
c --- [ solving ] ------------------------------------------------------------
c 
c time measured in process time since initialization
c 
c  seconds    reductions  redundant   irredundant
c          MB     restarts       trail       variables
c            level   conflicts       glue         remaining
c 
c * 19.81 1382  0 0   0    0    0  0% 0 1595422 2372 39%
c { 20.81 1423  0 0   0    0    0  0% 0 1595422 2372 39%
c i 27.71 1526 174 0  33  223  172 27% 22 1595422 2371 38%
c i 28.42 1527 159 0  36  245  191 27% 21 1595422 2370 38%
c - 32.97 1457 138 1  38  303  240 28% 23 466662 2370 38%
c i 34.19 1458 124 1  51  354  289 28% 24 466662 2369 38%
c i 35.68 1460 123 1  65  416  339 28% 26 466662 2367 38%
c i 36.55 1461 109 1  67  499  407 28% 26 466662 2366 38%
c i 36.58 1461 108 1  67  504  411 28% 26 466662 2365 38%
c i 37.47 1462 107 1  74  537  439 28% 27 466662 2364 38%
c i 37.95 1462 90 1  81  667  533 29% 25 466662 2363 38%
c i 38.03 1462 87 1  81  697  552 29% 25 466662 2362 38%
c i 38.04 1462 87 1  81  700  554 29% 25 466662 2361 38%
c i 38.06 1462 87 1  81  704  556 29% 25 466662 2354 38%
c i 38.38 1462 90 1  85  800  632 28% 25 466662 2351 38%
c i 38.56 1462 87 1  89  836  660 28% 25 466662 2350 38%
c i 38.61 1462 86 1  90  862  684 28% 25 466662 2349 38%
c i 38.67 1462 85 1  90  872  693 28% 25 466662 2348 38%
c i 39.19 1463 86 1  99  932  746 28% 26 466662 2315 38%
c } 40.47 1463 89 1 114 1000  805 28% 28 466662 2308 37%
c 
c  seconds    reductions  redundant  irredundant
c          MB     restarts       trail      variables
c            level   conflicts       glue        remaining
c 
c [ 40.47 1463  0 1 114 1000  805  0% 0 466662 2308 37%
c O 40.51 1463 81 1 114 1003  806 19% 7 466662 2308 37%
c i 40.51 1463 81 1 114 1003  806 19% 7 466662 2298 37%
c i 40.92 1463 29 1 114 1032  830 31% 16 466662 2297 37%
c i 40.95 1463 27 1 114 1039  836 31% 16 466662 2296 37%
c - 42.72 1631 35 2 114 1304  912 32% 28 383491 2296 37%
c i 42.99 1631 34 2 114 1328  928 32% 27 383491 2295 37%
c i 43.46 1631 29 2 114 1595 1096 32% 25 383491 2294 37%
c i 43.48 1631 29 2 114 1612 1106 32% 25 383491 2293 37%
c i 43.49 1631 29 2 114 1618 1105 32% 24 383491 2292 37%
c i 43.49 1631 29 2 114 1619 1105 32% 24 383491 2291 37%
c i 43.61 1631 28 2 114 1752 1183 32% 24 383491 2290 37%
c i 43.68 1631 28 2 114 1822 1225 32% 24 383491 2289 37%
c i 43.70 1631 28 2 114 1861 1246 32% 24 383491 2288 37%
c i 43.71 1631 28 2 114 1873 1246 31% 24 383491 2287 37%
c i 44.12 1631 30 2 115 2118 1401 31% 25 383491 2286 37%
c - 45.59 1627 30 3 115 2729 1293 31% 25 383461 2286 37%
c ] 46.38 1534 30 3 115 3002 1453 51% 25 383461 2286 37%
c { 46.38 1534 89 3 115 3002 1453 77% 28 383461 2286 37%
c F 46.49 1535 89 3 116 3004 1455 76% 28 383461 2286 37%
c 
c  seconds    reductions  redundant   irredundant
c          MB     restarts       trail       variables
c            level   conflicts       glue         remaining
c 
c i 47.30 1535 87 3 138 3095 1531 74% 29 383461 2285 37%
c i 48.07 1535 87 3 156 3191 1618 71% 30 383461 2284 37%
c i 48.08 1535 87 3 157 3192 1618 71% 30 383461 2283 37%
c i 48.08 1535 86 3 158 3195 1620 71% 30 383461 2282 37%
c i 48.08 1535 86 3 158 3196 1620 71% 30 383461 2281 37%
c i 49.14 1535 85 3 182 3324 1731 68% 30 383461 2280 37%
c i 49.18 1535 85 3 182 3330 1734 68% 30 383461 2279 37%
c i 49.75 1535 84 3 192 3408 1807 66% 30 383461 2278 37%
c i 49.84 1535 83 3 192 3431 1828 66% 30 383461 2277 37%
c i 49.92 1535 81 3 192 3492 1868 65% 30 383461 2276 37%
c i 50.70 1534 59 3 192 4339 2422 58% 25 383461 2275 37%
c i 50.73 1535 58 3 192 4370 2443 58% 25 383461 2274 37%
c - 51.54 1531 56 4 198 4629 1966 56% 25 383425 2274 37%
c i 52.90 1531 55 4 207 4833 2143 56% 24 383425 2273 37%
c d 53.89 1531 54 4 211 5003 2286 56% 24 383408 2266 37%
c p 62.34 1531 54 4 211 5003 5862 56% 24 383408 2225 36%
c d 62.92 1531 54 4 211 5003 5700 56% 24 383292 2224 36%
c # 65.96 1531 47 4 214 6007 6427 53% 23 383292 2224 36%
c } 70.79 1531 45 4 279 7002 7221 52% 23 383292 2224 36%
c [ 70.79 1531 30 4 279 7002 7221 51% 25 383292 2224 36%
c 
c  seconds    reductions  redundant   irredundant
c          MB     restarts       trail       variables
c            level   conflicts       glue         remaining
c 
c - 71.17 1528 30 5 279 7006 3082 51% 25 383292 2224 36%
c - 75.21 1373 32 6 281 9856 3453 51% 26 383292 2224 36%
c I 75.58 1373 32 6 281 10008 3569 51% 26 383292 2224 36%
c - 79.08 1373 28 7 283 13182 3809 52% 24 383292 2224 36%
c ] 81.62 1373 27 7 284 15005 5095 51% 23 383292 2224 36%
c { 81.62 1373 45 7 284 15005 5095 52% 23 383292 2224 36%
c p 85.40 1373 45 7 284 15005 8389 52% 23 383292 2224 36%
c B 85.71 1373 45 7 284 15010 8394 52% 23 383292 2224 36%
c - 89.93 1373 39 8 300 16983 4648 51% 22 383292 2224 36%
c s 93.85 1373 37 8 361 18788 5850 50% 22 382203 2224 36%
c v 101.55 1373 37 8 361 18788 5850 50% 22 382199 2224 36%
c t 101.72 1373 37 8 361 18788 5842 50% 22 382192 2224 36%
c e 103.46 1375 37 8 361 18788 5313 50% 22 379400 844 14%
c s 103.59 1375 37 8 361 18788 5313 50% 22 379324 844 14%
c W 117.54 1375 38 8 572 21012 6956 73% 22 379324 844 14%
c - 118.23 1375 37 9 577 21258 5228 74% 22 379324 844 14%
c } 122.58 1375 33 9 584 25268 7929 75% 21 379324 844 14%
c 1 122.58 1375 33 9 584 25268 7929 75% 21 379324 844 14%
c 
c --- [ writing output ] -----------------------------------------------------
c 
c writing simplified CNF to DIMACS file 'simp/33.cubes7260.adj.simp1'
c * 122.58 1375 33 9 584 25268 7929 75% 21 379324 844 14%
c opening file to write 'simp/33.cubes7260.adj.simp1'
c writing 'p cnf 6160 379324' header
c closing file 'simp/33.cubes7260.adj.simp1'
c after writing 179741359 bytes 171.4 MB
c wrote 379324 clauses in 1.30 seconds process time
c 
c --- [ writing extension ] --------------------------------------------------
c 
c writing extension stack to 'simp/33.cubes7260.adj.ext1'
c opening file to write 'simp/33.cubes7260.adj.ext1'
c closing file 'simp/33.cubes7260.adj.ext1'
c after writing 90985 bytes 0.1 MB
c wrote 4014 witnesses in 0.00 seconds process time
c 
c --- [ result ] -------------------------------------------------------------
c 
s SATISFIABLE
c 
c --- [ run-time profiling ] -------------------------------------------------
c 
c process time taken by individual solving procedures
c (percentage relative to process time for solving)
c 
c        78.27   76.16% search
c        60.06   58.44% unstable
c        24.51   23.84% simplify
c        19.81   19.27% parse
c        16.74   16.29% stable
c        12.03   11.71% probe
c         7.81    7.60% vivify
c         3.00    2.92% elim
c         1.00    0.98% lucky
c         0.47    0.46% walk
c         0.25    0.25% subsume
c         0.13    0.12% ternary
c   =================================
c       102.78   82.96% solve
c 
c last line shows process time for solving
c (percentage relative to total process time)
c 
c --- [ statistics ] ---------------------------------------------------------
c 
c chronological:              5153        20.39 %  of conflicts
c conflicts:                 25268       245.86    per second
c decisions:                 77437       753.46    per second
c eliminated:                 1380        22.40 %  of all variables
c fixed:                       784        12.73 %  of all variables
c learned:                   24659        97.59 %  per conflict
c learned_lits:            4636027       100.00 %  learned literals
c minimized:                     0         0.00 %  learned literals
c shrunken:                2769174        59.73 %  learned literals
c minishrunken:             425768         9.18 %  learned literals
c propagations:            3271407         0.03 M  per second
c reduced:                    9538        37.75 %  per conflict
c rephased:                      6      4211.33    interval
c restarts:                    584        43.27    interval
c stabilizing:                   2        39.60 %  of conflicts
c substituted:                   8         0.13 %  of all variables
c subsumed:                   7937         0.24 %  of all clauses
c strengthened:               3107         0.09 %  of all clauses
c ternary:                    1953         0.58 %  of resolved
c vivified:                     17         0.00 %  of all clauses
c walked:                        1     25268.00    interval
c weakened:                   3230         3.04    average size
c 
c seconds are measured in process time for solving
c 
c --- [ resources ] ----------------------------------------------------------
c 
c total process time since initialization:       123.89    seconds
c total real time since initialization:          127.31    seconds
c maximum resident set size of process:         1794.11    MB
c 
c --- [ shutting down ] ------------------------------------------------------
c 
c exit 10
WARNING! DIMACS header mismatch: wrong number of variables.
============================[ Problem Statistics ]=============================
|                                                                             |
|  Number of variables:          6120                                         |
|  Number of clauses:          379326                                         |
|  Parse time:                   2.37 s                                       |
|  Simplification time:          0.05 s                                       |
|                                                                             |
============================[ Search Statistics ]====================================================
| Conflicts |          ORIGINAL         |          LEARNT          | Num Sols |      SUBGRAPHS      |
|           |    Vars  Clauses Literals |    Limit  Clauses Lit/Cl |          | Canonical Noncanon. |
=====================================================================================================
|       308 |    6030   379534 39113742 |     2000      308     18 |        0 |        54       208 |
|       801 |    6030   379877 39118526 |     2000      801     29 |        0 |       115       551 |
|      1027 |    6030   379878 39118538 |     2000     1027     50 |        0 |       116       552 |
|      1494 |    6030   380008 39120375 |     2000     1494     60 |        0 |       166       682 |
|      2077 |    6030   380085 39121736 |     3601     1078     19 |        0 |       222       759 |
|      2898 |    6030   380147 39122986 |     3601     1899     56 |        0 |       234       821 |
|      4972 |    6030   381082 39138272 |     5003     2175     21 |        0 |       602      1756 |
|      7285 |    6030   381687 39148895 |     5003     4488     55 |        0 |       874      2361 |
|     10331 |    6030   382171 39157279 |     6307     5038     55 |        0 |      1000      2845 |
|     15451 |    6030   383447 39176885 |     7555     7006     47 |        0 |      1288      4121 |
|     21626 |    6030   383856 39184097 |     9992     5018     25 |        0 |      1438      4530 |
|     33488 |    6030   387069 39230075 |    12405     6293     23 |        0 |      2229      7743 |
|     48397 |    6030   389004 39257700 |    14806     8203     19 |        0 |      2731      9678 |
|     71488 |    6030   392634 39312814 |    17210    15898     51 |        0 |      3762     13308 |
|    101928 |    6030   393882 39332261 |    20820    18748     66 |       12 |      4409     14544 |
|    151665 |    6030   399830 39431434 |    25617    23282     68 |       13 |      5787     20491 |
|    220010 |    6030   402491 39474289 |    31618    21628     50 |       17 |      6740     23148 |
|    322675 |    6016   406630 39525761 |    38807    20482     31 |       19 |      7751     27285 |
|    475726 |    6002   411892 39604862 |    47222    25148     31 |       20 |      9552     32546 |
=====================================================================================================
Number of solutions   : 20
Canonical subgraphs   : 10573          (24 /sec)
          order  3    : 1              (166667 /sec)
          order  4    : 1              (500000 /sec)
          order  5    : 1              (200000 /sec)
          order  6    : 1              (55556 /sec)
          order  7    : 1              (8696 /sec)
          order  8    : 2              (1361 /sec)
          order  9    : 7              (354 /sec)
          order 10    : 30             (110 /sec)
          order 11    : 148            (72 /sec)
          order 12    : 847            (56 /sec)
          order 13    : 1045           (65 /sec)
          order 14    : 1329           (44 /sec)
          order 15    : 3182           (32 /sec)
          order 16    : 671            (21 /sec)
          order 17    : 1361           (16 /sec)
          order 18    : 1251           (14 /sec)
          order 19    : 309            (14 /sec)
          order 20    : 168            (15 /sec)
          order 21    : 198            (14 /sec)
          order 22    : 20             (1 /sec)
Noncanonical subgraphs: 34793          (223 /sec)
          order  3    : 0              (-nan /sec)
          order  4    : 0              (-nan /sec)
          order  5    : 0              (-nan /sec)
          order  6    : 0              (-nan /sec)
          order  7    : 0              (-nan /sec)
          order  8    : 0              (-nan /sec)
          order  9    : 0              (-nan /sec)
          order 10    : 0              (-nan /sec)
          order 11    : 0              (-nan /sec)
          order 12    : 0              (-nan /sec)
          order 13    : 11683          (2375 /sec)
          order 14    : 3516           (2601 /sec)
          order 15    : 6613           (985 /sec)
          order 16    : 7601           (162 /sec)
          order 17    : 2153           (112 /sec)
          order 18    : 2235           (59 /sec)
          order 19    : 757            (48 /sec)
          order 20    : 0              (-nan /sec)
          order 21    : 3              (57 /sec)
Canonicity checking   : 443.385 s
Noncanonicity checking: 156.144 s
Total canonicity time : 599.529 s
database reductions   : 41
restarts              : 1255
conflicts             : 586726         (714 /sec)
decisions             : 800021         (0.00 % random) (974 /sec)
propagations          : 25538261       (31086 /sec)
conflict literals     : 61876041       (53.81 % deleted)
actual reward         : 0.294149
Memory used           : 462.00 MB
CPU time              : 821.545 s

UNSATISFIABLE
